TCS_Benchmarks/redos_fix/snort1_output_distinct_2730_2729_8_0.txt
([^>]*)(\d{6})
([^>]*)(\/(Height|Width)\s*)(\d{6})